NAME : XML100_2145_04
DIMENSION : 101
NB_CLUSTERS : 4
CLUSTERING_ALG : KMedoids
CLUSTERING_PARAMS : k(3)
CLUSTERS
1 0
2 13 14 18 19 28 29 34 46 47 48 50 51 53 55 57 58 61 65 66 69 71 73 74 76 77 79 81 83 84 93 94 98 99
3 3 10 11 15 23 24 33 38 40 41 43 44 45 54 56 60 67 70 78 80 82 85 89 90 91 92 96 97 100
4 1 2 4 5 6 7 8 9 12 16 17 20 21 22 25 26 27 30 31 32 35 36 37 39 42 49 52 59 62 63 64 68 72 75 86 87 88 95
EOF